Version identifier: 20.1.0.0 | 2020-11-10 | 9bedb6d68
CPXPARAM_Threads                                 1
CPXPARAM_TimeLimit                               7200
CPXPARAM_MIP_Tolerances_MIPGap                   0
Generic callback                                 0x60
1 of 1 MIP starts provided solutions.
MIP start 'm1' defined initial solution with objective 2689.0651.
Tried aggregator 1 time.
Reduced MIP has 501001 rows, 500501 columns, and 1500500 nonzeros.
Reduced MIP has 500 binaries, 0 generals, 0 SOSs, and 0 indicators.
Presolve time = 0.46 sec. (400.65 ticks)
Probing time = 0.06 sec. (62.52 ticks)
Tried aggregator 1 time.
Reduced MIP has 501001 rows, 500501 columns, and 1500500 nonzeros.
Reduced MIP has 500 binaries, 0 generals, 0 SOSs, and 0 indicators.
Presolve time = 0.45 sec. (392.53 ticks)
Probing time = 0.06 sec. (62.52 ticks)
MIP emphasis: balance optimality and feasibility.
MIP search method: dynamic search.
Parallel mode: none, using 1 thread.
Root relaxation solution time = 0.15 sec. (192.93 ticks)

        Nodes                                         Cuts/
   Node  Left     Objective  IInf  Best Integer    Best Bound    ItCnt     Gap

*     0+    0                         2689.0651     5432.0000           102.00%
      0     0     2716.1230    28     2689.0651     5432.0000        0  102.00%
      0     2     2716.1230    28     2689.0651     2716.1229        0    1.01%
Elapsed time = 685.42 sec. (601776.41 ticks, tree = 0.01 MB, solutions = 1)
*     1     1      integral     0     2716.0000     2716.1229      748    0.00%
      1     1     2716.0000     0     2716.0000     2716.1229      748    0.00%
      2     0        cutoff           2716.0000     2716.0000     1555    0.00%

User cuts applied:  2

Root node processing (before b&c):
  Real time             =  685.32 sec. (601677.80 ticks)
Sequential b&c:
  Real time             =   33.63 sec. (20139.17 ticks)
                          ------------
Total (root+branch&cut) =  718.96 sec. (621816.97 ticks)
@Parameters: 
is_S_cut                                true
is_add_all_yinF                         true
is_start_value                          true
is_usercut                              true
is_visualization                        false
uc_only_rootnode                        false

data                                    Qi
fn                                      data/Qi/instance_1000_500.csv
mode                                    ZLP
solver                                  cplex

p                                       5
r                                       5

EPS                                     1.0e-06
EPS_vio                                 1.0e-04
beta                                    0.10
gap                                     0.00
nodelimit                               Inf
timelimit                               7200.00


@PrintInfos
ItCnt: 1555
Current gap: 0.00 %
Termination Status: OPTIMAL
Primal Status: FEASIBLE_POINT
Solve Time: 718.96 sec
Objective Value: 2716.000000
Number of Nodes:      3

CutInfo: [phase] num / time (sec) 
ZLP             [phase1]     0 / 0.00 [rLC]     4 / 14.50 [rUC]     2 / 6.31 [sLC]     0 / 3.59 [sUC]     0 / 0.00 
OldSubmodular   [phase1]     0 / 0.00 [rLC]     0 / 0.00 [rUC]     0 / 0.00 [sLC]     0 / 0.00 [sUC]     0 / 0.00 
NewSubmodular   [phase1]     0 / 0.00 [rLC]     0 / 0.00 [rUC]     0 / 0.00 [sLC]     0 / 0.00 [sUC]     0 / 0.00 
PMP             [phase1]     0 / 0.00 [rLC]     5 / 10.58 [rUC]     2 / 3.58 [sLC]     1 / 3.21 [sUC]     0 / 0.00 
Separation Round: [phase1] 0  [rLC] 5  [rUC] 2  [sLC] 1  [sUC] 0
Root Best Bound 2716.000000
Root Best Integer: 2716.000000
Best Bound: 2716.000000
Best Integer: 2716.000000

